n_res = 4;
rcap = [23, 22, 127, 125];
rtype = [1, 1, 2, 2];
n_tasks = 18;
modes = [ {1, 2, 3}, {4, 5, 6}, {7, 8, 9}, {10, 11, 12}, {13, 14, 15}, {16, 17, 18}, {19, 20, 21}, {22, 23, 24}, {25, 26, 27}, {28, 29, 30}, {31, 32, 33}, {34, 35, 36}, {37, 38, 39}, {40, 41, 42}, {43, 44, 45}, {46, 47, 48}, {49, 50, 51}, {52, 53, 54} ];
succ = [ {4, 5, 11}, {7, 10}, {9, 11, 16}, {12}, {6, 9, 13}, {14, 18}, {8, 9, 11}, {12, 14}, {18}, {12, 15, 17}, {17}, {16, 18}, {15}, {15, 17}, {16}, {}, {}, {} ];
n_opt = 54;
dur = [6, 7, 9, 3, 8, 9, 4, 4, 6, 1, 8, 8, 1, 3, 9, 2, 3, 3, 3, 4, 7, 6, 7, 10, 2, 5, 10, 2, 4, 5, 2, 2, 9, 4, 7, 9, 2, 3, 9, 7, 7, 10, 1, 2, 9, 2, 7, 8, 1, 2, 10, 8, 8, 10];
rreq = [|  7,  0,  0,  7,  0,  0,  7,  0,  0,  5,  4,  0,  7,  0,  3,  0,  0,  6,  8,  5,  3,  0,  1,  0,  0,  0,  4,  4,  0,  2,  0,  8,  6,  8,  8,  0,  0,  0, 10,  0,  5,  0,  5,  5,  0,  6,  6,  3,  0,  1,  0,  0,  8,  0
        |  0,  6,  4,  0,  7,  7,  0, 10, 10,  0,  0,  5,  0,  5,  0,  6,  1,  0,  0,  0,  0,  5,  0,  4,  1,  1,  0,  0,  2,  0,  4,  0,  0,  0,  0,  2,  6,  2,  0,  3,  0,  3,  0,  0,  4,  0,  0,  0,  4,  0,  2,  7,  0,  7
        |  7,  6,  5, 10,  9,  8, 10, 10, 10,  2,  2,  2,  9,  6,  5,  2,  1,  1,  4,  3,  3,  8,  5,  3,  5,  3,  2, 10,  9,  9,  8,  7,  7,  9,  8,  6,  8,  6,  4,  7,  7,  7,  8,  7,  5,  9,  5,  3,  6,  3,  1,  4,  5,  3
        |  8,  6,  4,  7,  4,  3, 10,  7,  2, 10,  7,  8,  2,  2,  1,  6,  4,  6,  5,  5,  5,  8,  8,  8,  7,  5,  4,  8,  8,  7,  6,  6,  1,  7,  6,  6,  6,  5,  4,  7,  9,  5,  4,  4,  2,  8,  7,  3,  5,  5,  4,  9,  7,  5 |];
